proyfinal/src/viki/013/experimentInOfficeAgust.take6.output/e6b40d37-2a51-47f3-8d78-4910d8d6569d.als.out
Reading from standard input... Use '--help' for help.
============================[ Problem Statistics ]=============================
|                                                                             |
|  Number of variables:         87638                                         |
|  Number of clauses:          161767                                         |
|  Parse time:                   0.03 s                                       |
|                                                                             |
============================[ Search Statistics ]==============================
| Conflicts |          ORIGINAL         |          LEARNT          | Progress |
|           |    Vars  Clauses Literals |    Limit  Clauses Lit/Cl |          |
===============================================================================
|       100 |   62736   106462   266021 |    39036      100     10 | 28.415 % |
|       250 |   62736   106462   266021 |    42939      250     13 | 28.415 % |
|       475 |   62736   106462   266021 |    47233      475     36 | 28.415 % |
|       812 |   62736   106462   266021 |    51957      812     53 | 28.415 % |
|      1318 |   62735   106418   265931 |    57152     1317     93 | 28.416 % |
|      2077 |   62735   106418   265931 |    62867     2076    103 | 28.416 % |
|      3216 |   62735   106418   265931 |    69154     3215     97 | 28.416 % |
|      4924 |   62735   106418   265931 |    76070     4923     97 | 28.416 % |
|      7486 |   52914    77012   193381 |    83677     6940     91 | 39.622 % |
|     11330 |   52719    76169   191389 |    92045     9981     82 | 39.845 % |
===============================================================================
restarts              : 62
conflicts             : 15891          (8459 /sec)
decisions             : 50198          (0.00 % random) (26722 /sec)
propagations          : 20002525       (10647887 /sec)
conflict literals     : 1137061        (47.03 % deleted)
Memory used           : 43.34 MB
CPU time              : 1.87854 s

UNSATISFIABLE
